<number of tasks>
50

<cycle time>
1000

<order strength>
0.595


<task times>
1 178
2 64
3 91
4 125
5 95
6 72
7 263
8 97
9 160
10 136
11 84
12 268
13 33
14 103
15 140
16 27
17 49
18 142
19 45
20 65
21 72
22 83
23 144
24 198
25 151
26 65
27 76
28 126
29 79
30 30
31 186
32 101
33 150
34 48
35 80
36 32
37 171
38 45
39 76
40 95
41 183
42 175
43 52
44 225
45 290
46 78
47 86
48 26
49 83
50 177

<precedence relations>
1,5
2,6
3,6
4,6
5,7
6,8
6,9
7,10
8,11
8,12
8,13
8,14
9,12
9,13
9,14
10,16
11,15
12,16
12,17
13,16
13,17
14,16
14,17
15,18
16,19
16,20
17,19
17,20
18,21
19,22
19,23
19,24
19,25
20,22
20,23
20,24
20,25
21,27
22,26
22,29
22,30
22,31
22,32
22,37
23,28
23,29
23,30
23,31
23,32
24,29
24,30
24,37
25,30
25,31
26,33
27,37
28,34
29,35
29,36
29,38
31,38
31,48
33,44
34,39
35,41
36,42
37,43
38,40
38,44
38,45
39,48
40,46
41,48
42,48
43,47
44,50
45,49

<end>
